Version identifier: 22.1.0.0 | 2022-03-09 | 1a383f8ce
CPXPARAM_Threads                                 1
CPXPARAM_MIP_Strategy_VariableSelect             3
CPXPARAM_TimeLimit                               599.99804123800004
Found incumbent of value 0.000000 after 0.00 sec. (0.28 ticks)

Root node processing (before b&c):
  Real time             =    0.00 sec. (0.31 ticks)
Sequential b&c:
  Real time             =    0.00 sec. (0.00 ticks)
                          ------------
Total (root+branch&cut) =    0.00 sec. (0.31 ticks)
Version identifier: 22.1.0.0 | 2022-03-09 | 1a383f8ce
CPXPARAM_Threads                                 1
CPXPARAM_MIP_Strategy_VariableSelect             3
CPXPARAM_TimeLimit                               599.98576894400003
Found incumbent of value 0.000000 after 0.00 sec. (0.31 ticks)

Root node processing (before b&c):
  Real time             =    0.00 sec. (0.35 ticks)
Sequential b&c:
  Real time             =    0.00 sec. (0.00 ticks)
                          ------------
Total (root+branch&cut) =    0.00 sec. (0.35 ticks)
Version identifier: 22.1.0.0 | 2022-03-09 | 1a383f8ce
CPXPARAM_Threads                                 1
CPXPARAM_MIP_Strategy_VariableSelect             3
CPXPARAM_TimeLimit                               599.97362005699995
Tried aggregator 1 time.
MIP Presolve eliminated 392 rows and 760 columns.
MIP Presolve modified 1 coefficients.
Reduced MIP has 950 rows, 1520 columns, and 11112 nonzeros.
Reduced MIP has 1520 binaries, 0 generals, 0 SOSs, and 0 indicators.
Presolve time = 0.01 sec. (7.78 ticks)
Probing time = 0.00 sec. (3.74 ticks)
Tried aggregator 1 time.
Detecting symmetries...
Reduced MIP has 950 rows, 1520 columns, and 11112 nonzeros.
Reduced MIP has 1520 binaries, 0 generals, 0 SOSs, and 0 indicators.
Presolve time = 0.01 sec. (6.65 ticks)
Probing time = 0.00 sec. (3.74 ticks)
Clique table members: 569.
MIP emphasis: balance optimality and feasibility.
MIP search method: dynamic search.
Parallel mode: none, using 1 thread.
Root relaxation solution time = 0.01 sec. (12.54 ticks)

        Nodes                                         Cuts/
   Node  Left     Objective  IInf  Best Integer    Best Bound    ItCnt     Gap

      0     0        0.0000   118                      0.0000      426         
*     0+    0                            0.0000        0.0000             0.00%
      0     0        cutoff              0.0000        0.0000      426    0.00%
Elapsed time = 0.09 sec. (76.81 ticks, tree = 0.01 MB, solutions = 1)

Root node processing (before b&c):
  Real time             =    0.09 sec. (76.88 ticks)
Sequential b&c:
  Real time             =    0.00 sec. (0.00 ticks)
                          ------------
Total (root+branch&cut) =    0.09 sec. (76.88 ticks)
Version identifier: 22.1.0.0 | 2022-03-09 | 1a383f8ce
CPXPARAM_Threads                                 1
CPXPARAM_MIP_Strategy_VariableSelect             3
CPXPARAM_TimeLimit                               599.86940524700003
Tried aggregator 1 time.
MIP Presolve eliminated 402 rows and 780 columns.
MIP Presolve modified 1 coefficients.
Reduced MIP has 975 rows, 1560 columns, and 11407 nonzeros.
Reduced MIP has 1560 binaries, 0 generals, 0 SOSs, and 0 indicators.
Presolve time = 0.01 sec. (7.99 ticks)
Probing time = 0.00 sec. (3.76 ticks)
Tried aggregator 1 time.
Detecting symmetries...
Reduced MIP has 975 rows, 1560 columns, and 11407 nonzeros.
Reduced MIP has 1560 binaries, 0 generals, 0 SOSs, and 0 indicators.
Presolve time = 0.01 sec. (6.82 ticks)
Probing time = 0.00 sec. (3.76 ticks)
Clique table members: 584.
MIP emphasis: balance optimality and feasibility.
MIP search method: dynamic search.
Parallel mode: none, using 1 thread.
Root relaxation solution time = 0.02 sec. (14.58 ticks)

        Nodes                                         Cuts/
   Node  Left     Objective  IInf  Best Integer    Best Bound    ItCnt     Gap

      0     0        0.0000    87                      0.0000      479         
*     0+    0                            0.0000        0.0000             0.00%
      0     0        cutoff              0.0000        0.0000      479    0.00%
Elapsed time = 0.12 sec. (103.35 ticks, tree = 0.01 MB, solutions = 1)

Root node processing (before b&c):
  Real time             =    0.12 sec. (103.42 ticks)
Sequential b&c:
  Real time             =    0.00 sec. (0.00 ticks)
                          ------------
Total (root+branch&cut) =    0.12 sec. (103.42 ticks)
Version identifier: 22.1.0.0 | 2022-03-09 | 1a383f8ce
CPXPARAM_Threads                                 1
CPXPARAM_MIP_Strategy_VariableSelect             3
CPXPARAM_TimeLimit                               599.73590338199995
Tried aggregator 1 time.
MIP Presolve eliminated 406 rows and 788 columns.
MIP Presolve modified 1 coefficients.
Reduced MIP has 985 rows, 1576 columns, and 11525 nonzeros.
Reduced MIP has 1576 binaries, 0 generals, 0 SOSs, and 0 indicators.
Presolve time = 0.01 sec. (8.08 ticks)
Probing time = 0.00 sec. (3.78 ticks)
Tried aggregator 1 time.
Detecting symmetries...
Reduced MIP has 985 rows, 1576 columns, and 11525 nonzeros.
Reduced MIP has 1576 binaries, 0 generals, 0 SOSs, and 0 indicators.
Presolve time = 0.01 sec. (6.88 ticks)
Probing time = 0.00 sec. (3.78 ticks)
Clique table members: 590.
MIP emphasis: balance optimality and feasibility.
MIP search method: dynamic search.
Parallel mode: none, using 1 thread.
Root relaxation solution time = 0.02 sec. (13.99 ticks)

        Nodes                                         Cuts/
   Node  Left     Objective  IInf  Best Integer    Best Bound    ItCnt     Gap

      0     0        0.0000   108                      0.0000      462         
*     0+    0                            0.0000        0.0000             0.00%
      0     0        cutoff              0.0000        0.0000      462    0.00%
Elapsed time = 0.09 sec. (79.35 ticks, tree = 0.01 MB, solutions = 1)

Root node processing (before b&c):
  Real time             =    0.09 sec. (79.42 ticks)
Sequential b&c:
  Real time             =    0.00 sec. (0.00 ticks)
                          ------------
Total (root+branch&cut) =    0.09 sec. (79.42 ticks)
Version identifier: 22.1.0.0 | 2022-03-09 | 1a383f8ce
CPXPARAM_Threads                                 1
CPXPARAM_MIP_Strategy_VariableSelect             3
CPXPARAM_TimeLimit                               599.62817393399996
Tried aggregator 1 time.
MIP Presolve eliminated 408 rows and 792 columns.
MIP Presolve modified 1 coefficients.
Reduced MIP has 990 rows, 1584 columns, and 11584 nonzeros.
Reduced MIP has 1584 binaries, 0 generals, 0 SOSs, and 0 indicators.
Presolve time = 0.01 sec. (8.12 ticks)
Probing time = 0.00 sec. (3.80 ticks)
Tried aggregator 1 time.
Detecting symmetries...
Reduced MIP has 990 rows, 1584 columns, and 11584 nonzeros.
Reduced MIP has 1584 binaries, 0 generals, 0 SOSs, and 0 indicators.
Presolve time = 0.01 sec. (6.93 ticks)
Probing time = 0.00 sec. (3.80 ticks)
Clique table members: 593.
MIP emphasis: balance optimality and feasibility.
MIP search method: dynamic search.
Parallel mode: none, using 1 thread.
Root relaxation solution time = 0.02 sec. (13.50 ticks)

        Nodes                                         Cuts/
   Node  Left     Objective  IInf  Best Integer    Best Bound    ItCnt     Gap

      0     0        0.0000    72                      0.0000      467         
*     0+    0                            0.0000        0.0000             0.00%
      0     0        cutoff              0.0000        0.0000      467    0.00%
Elapsed time = 0.12 sec. (108.61 ticks, tree = 0.01 MB, solutions = 1)

Root node processing (before b&c):
  Real time             =    0.12 sec. (108.68 ticks)
Sequential b&c:
  Real time             =    0.00 sec. (0.00 ticks)
                          ------------
Total (root+branch&cut) =    0.12 sec. (108.68 ticks)
Version identifier: 22.1.0.0 | 2022-03-09 | 1a383f8ce
CPXPARAM_Threads                                 1
CPXPARAM_MIP_Strategy_VariableSelect             3
CPXPARAM_TimeLimit                               599.49027770600003
Tried aggregator 1 time.
MIP Presolve eliminated 410 rows and 796 columns.
MIP Presolve modified 1 coefficients.
Reduced MIP has 995 rows, 1592 columns, and 11643 nonzeros.
Reduced MIP has 1592 binaries, 0 generals, 0 SOSs, and 0 indicators.
Presolve time = 0.01 sec. (8.16 ticks)
Probing time = 0.00 sec. (3.79 ticks)
Tried aggregator 1 time.
Detecting symmetries...
Reduced MIP has 995 rows, 1592 columns, and 11643 nonzeros.
Reduced MIP has 1592 binaries, 0 generals, 0 SOSs, and 0 indicators.
Presolve time = 0.01 sec. (6.95 ticks)
Probing time = 0.00 sec. (3.79 ticks)
Clique table members: 596.
MIP emphasis: balance optimality and feasibility.
MIP search method: dynamic search.
Parallel mode: none, using 1 thread.
Root relaxation solution time = 0.02 sec. (15.34 ticks)

        Nodes                                         Cuts/
   Node  Left     Objective  IInf  Best Integer    Best Bound    ItCnt     Gap

      0     0        0.0000   136                      0.0000      487         
*     0+    0                            0.0000        0.0000             0.00%
      0     0        cutoff              0.0000        0.0000      487    0.00%
Elapsed time = 0.15 sec. (127.17 ticks, tree = 0.01 MB, solutions = 1)

Root node processing (before b&c):
  Real time             =    0.15 sec. (127.24 ticks)
Sequential b&c:
  Real time             =    0.00 sec. (0.00 ticks)
                          ------------
Total (root+branch&cut) =    0.15 sec. (127.24 ticks)
Primal:	199
Dual:	199
Status:	Optimal
Time:	0.673664
Sequence:
	10
	4
	1
	4
	5
	9
	5
	4
	1
	4
	4
	10
	4
	5
	9
	10
	4
	1
	9
	1
	9
	1
	9
	5
	9
	10
	9
	10
	9
	1
	9
	5
	9
	5
	8
	10
	9
	5
	9
	10
	9
	1
	4
	9
	5
	9
	5
	9
	1
	9
	9
	4
	5
	9
	5
	9
	5
	9
	1
	9
	5
	9
	5
	9
	5
	9
	10
	9
	5
	9
	1
	9
	1
	9
	1
	4
	5
	9
	5
	4
	1
	9
	1
	9
	1
	4
	5
	0
	5
	9
	5
	0
	5
	4
	0
	1
	4
	4
	10
	4
	5
	0
	5
	4
	1
	0
	4
	5
	0
	9
	1
	0
	5
	4
	1
	0
	5
	9
	0
	5
	4
	0
	1
	4
	5
	9
	5
	9
	5
	0
	9
	10
	0
	10
	9
	1
	4
	4
	10
	9
	0
	1
	9
	5
	9
	5
	0
	1
	4
	5
	0
	5
	4
	0
	5
	4
	1
	0
	1
	4
	1
	0
	1
	9
	10
	0
	10
	9
	5
	0
	5
	9
	0
	1
	9
	5
	0
	1
	4
	10
	0
	5
	4
	1
	0
	1
	4
	1
	0
	5
	9
	5
	0
	3
	4
	0
	5
	4
	10
